(set-logic HORN)
(set-info :source |
    Benchmark: C_VC
    Output by Princess (http://www.philipp.ruemmer.org/princess.shtml)
|)
(set-info :status unsat)
(declare-fun inv_main6 (Int Int Int Int) Bool)
(declare-fun inv_main793 (Int Int Int Int Int Int Int Int Int Int Int Int Int Int Int Int Int Int Int Int Int Int Int Int Int Int Int Int Int Int Int Int Int Int Int Int Int Int Int Int Int Int Int Int Int Int Int Int Int Int Int Int Int Int Int Int Int Int Int Int Int Int Int Int Int Int Int Int Int Int Int Int Int Int Int Int Int Int Int) Bool)
(assert (forall ((var0 Int) (var1 Int) (var2 Int)) (inv_main6 var2 0 var1 var0)))
(assert (forall ((var0 Int) (var1 Int) (var2 Int) (var3 Int) (var4 Int) (var5 Int) (var6 Int) (var7 Int) (var8 Int) (var9 Int) (var10 Int) (var11 Int) (var12 Int) (var13 Int) (var14 Int) (var15 Int) (var16 Int) (var17 Int) (var18 Int) (var19 Int) (var20 Int) (var21 Int) (var22 Int) (var23 Int) (var24 Int) (var25 Int) (var26 Int) (var27 Int) (var28 Int) (var29 Int) (var30 Int) (var31 Int) (var32 Int) (var33 Int) (var34 Int) (var35 Int) (var36 Int) (var37 Int) (var38 Int) (var39 Int) (var40 Int) (var41 Int) (var42 Int) (var43 Int) (var44 Int) (var45 Int) (var46 Int) (var47 Int) (var48 Int) (var49 Int) (var50 Int) (var51 Int) (var52 Int) (var53 Int) (var54 Int) (var55 Int) (var56 Int) (var57 Int) (var58 Int) (var59 Int) (var60 Int) (var61 Int) (var62 Int) (var63 Int) (var64 Int) (var65 Int) (var66 Int) (var67 Int) (var68 Int) (var69 Int) (var70 Int) (var71 Int) (var72 Int) (var73 Int) (var74 Int) (var75 Int) (var76 Int) (var77 Int) (var78 Int)) (or (not (and (inv_main6 var78 var77 var76 var75) (and (and (and (and (and (and (and (and (and (and (and (and (and (and (and (and (and (and (and (and (and (and (and (and (and (and (and (and (and (and (and (and (and (and (and (and (and (and (and (and (and (and (and (and (and (and (and (and (and (and (and (and (and (and (and (and (and (and (and (and (and (and (and (and (and (and (and (and (and (and (and (and (and (and (and (and (not (= (+ var74 (* (- 1) var73)) (+ var72 (* (- 1) var71)))) (and (= (+ var70 (* (- 1) var71)) var69) (and (= (+ var72 (* (- 1) var73)) var68) (and (= (+ var74 (* (- 1) var67)) var66) (and (= (+ var65 (* (- 1) var71)) var64) (and (= (+ var70 (* (- 1) var73)) var63) (and (= (+ var72 (* (- 1) var67)) var62) (and (= (+ var74 (* (- 1) var61)) var60) (and (= (+ var59 (* (- 1) var71)) var58) (and (= (+ var65 (* (- 1) var73)) var57) (and (= (+ var70 (* (- 1) var67)) var56) (and (= (+ var72 (* (- 1) var61)) var55) (and (= (+ var74 (* (- 1) var54)) var53) (and (= (+ var52 (* (- 1) var71)) var51) (and (= (+ var59 (* (- 1) var73)) var50) (and (= (+ var65 (* (- 1) var67)) var49) (and (= (+ var70 (* (- 1) var61)) var48) (and (= (+ var72 (* (- 1) var54)) var47) (and (= (+ var74 (* (- 1) var46)) var45) (and (= (+ var46 (* (- 1) var71)) var44) (and (= (+ var52 (* (- 1) var73)) var43) (and (= (+ var59 (* (- 1) var67)) var42) (and (= (+ var65 (* (- 1) var61)) var41) (and (= (+ var70 (* (- 1) var54)) var40) (and (= (+ var72 (* (- 1) var46)) var39) (and (= (+ var74 (* (- 1) var52)) var38) (and (= (+ var54 (* (- 1) var71)) var37) (and (= (+ var46 (* (- 1) var73)) var36) (and (= (+ var52 (* (- 1) var67)) var35) (and (= (+ var59 (* (- 1) var61)) var34) (and (= (+ var65 (* (- 1) var54)) var33) (and (= (+ var70 (* (- 1) var46)) var32) (and (= (+ var72 (* (- 1) var52)) var31) (and (= (+ var74 (* (- 1) var59)) var30) (and (= (+ var61 (* (- 1) var71)) var29) (and (= (+ var54 (* (- 1) var73)) var28) (and (= (+ var46 (* (- 1) var67)) var27) (and (= (+ var52 (* (- 1) var61)) var26) (and (= (+ var59 (* (- 1) var54)) var25) (and (= (+ var65 (* (- 1) var46)) var24) (and (= (+ var70 (* (- 1) var52)) var23) (and (= (+ var72 (* (- 1) var59)) var22) (and (= (+ var74 (* (- 1) var65)) var21) (and (= (+ var67 (* (- 1) var71)) var20) (and (= (+ var61 (* (- 1) var73)) var19) (and (= (+ var54 (* (- 1) var67)) var18) (and (= (+ var46 (* (- 1) var61)) var17) (and (= (+ var52 (* (- 1) var54)) var16) (and (= (+ var59 (* (- 1) var46)) var15) (and (= (+ var65 (* (- 1) var52)) var14) (and (= (+ var70 (* (- 1) var59)) var13) (and (= (+ var72 (* (- 1) var65)) var12) (and (= (+ var74 (* (- 1) var70)) var11) (and (= (+ var73 (* (- 1) var71)) var10) (and (= (+ var67 (* (- 1) var73)) var9) (and (= (+ var61 (* (- 1) var67)) var8) (and (= (+ var54 (* (- 1) var61)) var7) (and (= (+ var46 (* (- 1) var54)) var6) (and (= (+ var52 (* (- 1) var46)) var5) (and (= (+ var59 (* (- 1) var52)) var4) (and (= (+ var65 (* (- 1) var59)) var3) (and (= (+ var70 (* (- 1) var65)) var2) (and (= (+ var72 (* (- 1) var70)) var1) (and (= (+ var74 (* (- 1) var72)) var0) (and (not (= var68 var69)) (and (not (= var66 var69)) (and (not (= var66 var68)) (and (not (= var63 var64)) (and (not (= var62 var64)) (and (not (= var62 var63)) (and (not (= var60 var64)) (and (not (= var60 var63)) (and (not (= var60 var62)) (and (not (= var57 var58)) (and (not (= var56 var58)) (and (not (= var56 var57)) (and (not (= var55 var58)) (and (not (= var55 var57)) (and (not (= var55 var56)) (and (not (= var53 var58)) (and (not (= var53 var57)) (and (not (= var53 var56)) (and (not (= var53 var55)) (and (not (= var50 var51)) (and (not (= var49 var51)) (and (not (= var49 var50)) (and (not (= var48 var51)) (and (not (= var48 var50)) (and (not (= var48 var49)) (and (not (= var47 var51)) (and (not (= var47 var50)) (and (not (= var47 var49)) (and (not (= var47 var48)) (and (not (= var45 var51)) (and (not (= var45 var50)) (and (not (= var45 var49)) (and (not (= var45 var48)) (and (not (= var45 var47)) (and (not (= var43 var44)) (and (not (= var42 var44)) (and (not (= var42 var43)) (and (not (= var41 var44)) (and (not (= var41 var43)) (and (not (= var41 var42)) (and (not (= var40 var44)) (and (not (= var40 var43)) (and (not (= var40 var42)) (and (not (= var40 var41)) (and (not (= var39 var44)) (and (not (= var39 var43)) (and (not (= var39 var42)) (and (not (= var39 var41)) (and (not (= var39 var40)) (and (not (= var38 var44)) (and (not (= var38 var43)) (and (not (= var38 var42)) (and (not (= var38 var41)) (and (not (= var38 var40)) (and (not (= var38 var39)) (and (not (= var36 var37)) (and (not (= var35 var37)) (and (not (= var35 var36)) (and (not (= var34 var37)) (and (not (= var34 var36)) (and (not (= var34 var35)) (and (not (= var33 var37)) (and (not (= var33 var36)) (and (not (= var33 var35)) (and (not (= var33 var34)) (and (not (= var32 var37)) (and (not (= var32 var36)) (and (not (= var32 var35)) (and (not (= var32 var34)) (and (not (= var32 var33)) (and (not (= var31 var37)) (and (not (= var31 var36)) (and (not (= var31 var35)) (and (not (= var31 var34)) (and (not (= var31 var33)) (and (not (= var31 var32)) (and (not (= var30 var37)) (and (not (= var30 var36)) (and (not (= var30 var35)) (and (not (= var30 var34)) (and (not (= var30 var33)) (and (not (= var30 var32)) (and (not (= var30 var31)) (and (not (= var28 var29)) (and (not (= var27 var29)) (and (not (= var27 var28)) (and (not (= var26 var29)) (and (not (= var26 var28)) (and (not (= var26 var27)) (and (not (= var25 var29)) (and (not (= var25 var28)) (and (not (= var25 var27)) (and (not (= var25 var26)) (and (not (= var24 var29)) (and (not (= var24 var28)) (and (not (= var24 var27)) (and (not (= var24 var26)) (and (not (= var24 var25)) (and (not (= var23 var29)) (and (not (= var23 var28)) (and (not (= var23 var27)) (and (not (= var23 var26)) (and (not (= var23 var25)) (and (not (= var23 var24)) (and (not (= var22 var29)) (and (not (= var22 var28)) (and (not (= var22 var27)) (and (not (= var22 var26)) (and (not (= var22 var25)) (and (not (= var22 var24)) (and (not (= var22 var23)) (and (not (= var21 var29)) (and (not (= var21 var28)) (and (not (= var21 var27)) (and (not (= var21 var26)) (and (not (= var21 var25)) (and (not (= var21 var24)) (and (not (= var21 var23)) (and (not (= var21 var22)) (and (not (= var19 var20)) (and (not (= var18 var20)) (and (not (= var18 var19)) (and (not (= var17 var20)) (and (not (= var17 var19)) (and (not (= var17 var18)) (and (not (= var16 var20)) (and (not (= var16 var19)) (and (not (= var16 var18)) (and (not (= var16 var17)) (and (not (= var15 var20)) (and (not (= var15 var19)) (and (not (= var15 var18)) (and (not (= var15 var17)) (and (not (= var15 var16)) (and (not (= var14 var20)) (and (not (= var14 var19)) (and (not (= var14 var18)) (and (not (= var14 var17)) (and (not (= var14 var16)) (and (not (= var14 var15)) (and (not (= var13 var20)) (and (not (= var13 var19)) (and (not (= var13 var18)) (and (not (= var13 var17)) (and (not (= var13 var16)) (and (not (= var13 var15)) (and (not (= var13 var14)) (and (not (= var12 var20)) (and (not (= var12 var19)) (and (not (= var12 var18)) (and (not (= var12 var17)) (and (not (= var12 var16)) (and (not (= var12 var15)) (and (not (= var12 var14)) (and (not (= var12 var13)) (and (not (= var11 var20)) (and (not (= var11 var19)) (and (not (= var11 var18)) (and (not (= var11 var17)) (and (not (= var11 var16)) (and (not (= var11 var15)) (and (not (= var11 var14)) (and (not (= var11 var13)) (and (not (= var11 var12)) (and (not (= var9 var10)) (and (not (= var8 var10)) (and (not (= var8 var9)) (and (not (= var7 var10)) (and (not (= var7 var9)) (and (not (= var7 var8)) (and (not (= var6 var10)) (and (not (= var6 var9)) (and (not (= var6 var8)) (and (not (= var6 var7)) (and (not (= var5 var10)) (and (not (= var5 var9)) (and (not (= var5 var8)) (and (not (= var5 var7)) (and (not (= var5 var6)) (and (not (= var4 var10)) (and (not (= var4 var9)) (and (not (= var4 var8)) (and (not (= var4 var7)) (and (not (= var4 var6)) (and (not (= var4 var5)) (and (not (= var3 var10)) (and (not (= var3 var9)) (and (not (= var3 var8)) (and (not (= var3 var7)) (and (not (= var3 var6)) (and (not (= var3 var5)) (and (not (= var3 var4)) (and (not (= var2 var10)) (and (not (= var2 var9)) (and (not (= var2 var8)) (and (not (= var2 var7)) (and (not (= var2 var6)) (and (not (= var2 var5)) (and (not (= var2 var4)) (and (not (= var2 var3)) (and (not (= var1 var10)) (and (not (= var1 var9)) (and (not (= var1 var8)) (and (not (= var1 var7)) (and (not (= var1 var6)) (and (not (= var1 var5)) (and (not (= var1 var4)) (and (not (= var1 var3)) (and (not (= var1 var2)) (and (not (= var0 var10)) (and (not (= var0 var9)) (and (not (= var0 var8)) (and (not (= var0 var7)) (and (not (= var0 var6)) (and (not (= var0 var5)) (and (not (= var0 var4)) (and (not (= var0 var3)) (and (not (= var0 var2)) (and (not (= var0 var1)) (and (not (= var73 var71)) (and (not (= var67 var71)) (and (not (= var67 var73)) (and (not (= var61 var71)) (and (not (= var61 var73)) (and (not (= var61 var67)) (and (not (= var54 var71)) (and (not (= var54 var73)) (and (not (= var54 var67)) (and (not (= var54 var61)) (and (not (= var46 var71)) (and (not (= var46 var73)) (and (not (= var46 var67)) (and (not (= var46 var61)) (and (not (= var46 var54)) (and (not (= var52 var71)) (and (not (= var52 var73)) (and (not (= var52 var67)) (and (not (= var52 var61)) (and (not (= var52 var54)) (and (not (= var52 var46)) (and (not (= var59 var71)) (and (not (= var59 var73)) (and (not (= var59 var67)) (and (not (= var59 var61)) (and (not (= var59 var54)) (and (not (= var59 var46)) (and (not (= var59 var52)) (and (not (= var65 var71)) (and (not (= var65 var73)) (and (not (= var65 var67)) (and (not (= var65 var61)) (and (not (= var65 var54)) (and (not (= var65 var46)) (and (not (= var65 var52)) (and (not (= var65 var59)) (and (not (= var70 var71)) (and (not (= var70 var73)) (and (not (= var70 var67)) (and (not (= var70 var61)) (and (not (= var70 var54)) (and (not (= var70 var46)) (and (not (= var70 var52)) (and (not (= var70 var59)) (and (not (= var70 var65)) (and (not (= var72 var71)) (and (not (= var72 var73)) (and (not (= var72 var67)) (and (not (= var72 var61)) (and (not (= var72 var54)) (and (not (= var72 var46)) (and (not (= var72 var52)) (and (not (= var72 var59)) (and (not (= var72 var65)) (and (not (= var72 var70)) (and (not (= var74 var71)) (and (not (= var74 var73)) (and (not (= var74 var67)) (and (not (= var74 var61)) (and (not (= var74 var54)) (and (not (= var74 var46)) (and (not (= var74 var52)) (and (not (= var74 var59)) (and (not (= var74 var65)) (and (not (= var74 var70)) (not (= var74 var72)))))))))))))))))))))))))))))))))))))))))))))))))))))))))))))))))))))))))))))))))))))))))))))))))))))))))))))))))))))))))))))))))))))))))))))))))))))))))))))))))))))))))))))))))))))))))))))))))))))))))))))))))))))))))))))))))))))))))))))))))))))))))))))))))))))))))))))))))))))))))))))))))))))))))))))))))))))))))))))))))))))))))))))))))))))))))))))) (and (not (= var69 0)) (and (<= 0 (+ 11 (* (- 1) var69))) (<= 0 (+ var69 11))))) (and (not (= var68 0)) (and (<= 0 (+ 11 (* (- 1) var68))) (<= 0 (+ var68 11))))) (and (not (= var66 0)) (and (<= 0 (+ 11 (* (- 1) var66))) (<= 0 (+ var66 11))))) (and (not (= var64 0)) (and (<= 0 (+ 11 (* (- 1) var64))) (<= 0 (+ var64 11))))) (and (not (= var63 0)) (and (<= 0 (+ 11 (* (- 1) var63))) (<= 0 (+ var63 11))))) (and (not (= var62 0)) (and (<= 0 (+ 11 (* (- 1) var62))) (<= 0 (+ var62 11))))) (and (not (= var60 0)) (and (<= 0 (+ 11 (* (- 1) var60))) (<= 0 (+ var60 11))))) (and (not (= var58 0)) (and (<= 0 (+ 11 (* (- 1) var58))) (<= 0 (+ var58 11))))) (and (not (= var57 0)) (and (<= 0 (+ 11 (* (- 1) var57))) (<= 0 (+ var57 11))))) (and (not (= var56 0)) (and (<= 0 (+ 11 (* (- 1) var56))) (<= 0 (+ var56 11))))) (and (not (= var55 0)) (and (<= 0 (+ 11 (* (- 1) var55))) (<= 0 (+ var55 11))))) (and (not (= var53 0)) (and (<= 0 (+ 11 (* (- 1) var53))) (<= 0 (+ var53 11))))) (and (not (= var51 0)) (and (<= 0 (+ 11 (* (- 1) var51))) (<= 0 (+ var51 11))))) (and (not (= var50 0)) (and (<= 0 (+ 11 (* (- 1) var50))) (<= 0 (+ var50 11))))) (and (not (= var49 0)) (and (<= 0 (+ 11 (* (- 1) var49))) (<= 0 (+ var49 11))))) (and (not (= var48 0)) (and (<= 0 (+ 11 (* (- 1) var48))) (<= 0 (+ var48 11))))) (and (not (= var47 0)) (and (<= 0 (+ 11 (* (- 1) var47))) (<= 0 (+ var47 11))))) (and (not (= var45 0)) (and (<= 0 (+ 11 (* (- 1) var45))) (<= 0 (+ var45 11))))) (and (not (= var44 0)) (and (<= 0 (+ 11 (* (- 1) var44))) (<= 0 (+ var44 11))))) (and (not (= var43 0)) (and (<= 0 (+ 11 (* (- 1) var43))) (<= 0 (+ var43 11))))) (and (not (= var42 0)) (and (<= 0 (+ 11 (* (- 1) var42))) (<= 0 (+ var42 11))))) (and (not (= var41 0)) (and (<= 0 (+ 11 (* (- 1) var41))) (<= 0 (+ var41 11))))) (and (not (= var40 0)) (and (<= 0 (+ 11 (* (- 1) var40))) (<= 0 (+ var40 11))))) (and (not (= var39 0)) (and (<= 0 (+ 11 (* (- 1) var39))) (<= 0 (+ var39 11))))) (and (not (= var38 0)) (and (<= 0 (+ 11 (* (- 1) var38))) (<= 0 (+ var38 11))))) (and (not (= var37 0)) (and (<= 0 (+ 11 (* (- 1) var37))) (<= 0 (+ var37 11))))) (and (not (= var36 0)) (and (<= 0 (+ 11 (* (- 1) var36))) (<= 0 (+ var36 11))))) (and (not (= var35 0)) (and (<= 0 (+ 11 (* (- 1) var35))) (<= 0 (+ var35 11))))) (and (not (= var34 0)) (and (<= 0 (+ 11 (* (- 1) var34))) (<= 0 (+ var34 11))))) (and (not (= var33 0)) (and (<= 0 (+ 11 (* (- 1) var33))) (<= 0 (+ var33 11))))) (and (not (= var32 0)) (and (<= 0 (+ 11 (* (- 1) var32))) (<= 0 (+ var32 11))))) (and (not (= var31 0)) (and (<= 0 (+ 11 (* (- 1) var31))) (<= 0 (+ var31 11))))) (and (not (= var30 0)) (and (<= 0 (+ 11 (* (- 1) var30))) (<= 0 (+ var30 11))))) (and (not (= var29 0)) (and (<= 0 (+ 11 (* (- 1) var29))) (<= 0 (+ var29 11))))) (and (not (= var28 0)) (and (<= 0 (+ 11 (* (- 1) var28))) (<= 0 (+ var28 11))))) (and (not (= var27 0)) (and (<= 0 (+ 11 (* (- 1) var27))) (<= 0 (+ var27 11))))) (and (not (= var26 0)) (and (<= 0 (+ 11 (* (- 1) var26))) (<= 0 (+ var26 11))))) (and (not (= var25 0)) (and (<= 0 (+ 11 (* (- 1) var25))) (<= 0 (+ var25 11))))) (and (not (= var24 0)) (and (<= 0 (+ 11 (* (- 1) var24))) (<= 0 (+ var24 11))))) (and (not (= var23 0)) (and (<= 0 (+ 11 (* (- 1) var23))) (<= 0 (+ var23 11))))) (and (not (= var22 0)) (and (<= 0 (+ 11 (* (- 1) var22))) (<= 0 (+ var22 11))))) (and (not (= var21 0)) (and (<= 0 (+ 11 (* (- 1) var21))) (<= 0 (+ var21 11))))) (and (not (= var20 0)) (and (<= 0 (+ 11 (* (- 1) var20))) (<= 0 (+ var20 11))))) (and (not (= var19 0)) (and (<= 0 (+ 11 (* (- 1) var19))) (<= 0 (+ var19 11))))) (and (not (= var18 0)) (and (<= 0 (+ 11 (* (- 1) var18))) (<= 0 (+ var18 11))))) (and (not (= var17 0)) (and (<= 0 (+ 11 (* (- 1) var17))) (<= 0 (+ var17 11))))) (and (not (= var16 0)) (and (<= 0 (+ 11 (* (- 1) var16))) (<= 0 (+ var16 11))))) (and (not (= var15 0)) (and (<= 0 (+ 11 (* (- 1) var15))) (<= 0 (+ var15 11))))) (and (not (= var14 0)) (and (<= 0 (+ 11 (* (- 1) var14))) (<= 0 (+ var14 11))))) (and (not (= var13 0)) (and (<= 0 (+ 11 (* (- 1) var13))) (<= 0 (+ var13 11))))) (and (not (= var12 0)) (and (<= 0 (+ 11 (* (- 1) var12))) (<= 0 (+ var12 11))))) (and (not (= var11 0)) (and (<= 0 (+ 11 (* (- 1) var11))) (<= 0 (+ var11 11))))) (and (not (= var10 0)) (and (<= 0 (+ 11 (* (- 1) var10))) (<= 0 (+ var10 11))))) (and (not (= var9 0)) (and (<= 0 (+ 11 (* (- 1) var9))) (<= 0 (+ var9 11))))) (and (not (= var8 0)) (and (<= 0 (+ 11 (* (- 1) var8))) (<= 0 (+ var8 11))))) (and (not (= var7 0)) (and (<= 0 (+ 11 (* (- 1) var7))) (<= 0 (+ var7 11))))) (and (not (= var6 0)) (and (<= 0 (+ 11 (* (- 1) var6))) (<= 0 (+ var6 11))))) (and (not (= var5 0)) (and (<= 0 (+ 11 (* (- 1) var5))) (<= 0 (+ var5 11))))) (and (not (= var4 0)) (and (<= 0 (+ 11 (* (- 1) var4))) (<= 0 (+ var4 11))))) (and (not (= var3 0)) (and (<= 0 (+ 11 (* (- 1) var3))) (<= 0 (+ var3 11))))) (and (not (= var2 0)) (and (<= 0 (+ 11 (* (- 1) var2))) (<= 0 (+ var2 11))))) (and (not (= var1 0)) (and (<= 0 (+ 11 (* (- 1) var1))) (<= 0 (+ var1 11))))) (and (not (= var0 0)) (and (<= 0 (+ 11 (* (- 1) var0))) (<= 0 (+ var0 11))))) (and (<= 0 (+ 12 (* (- 1) var71))) (<= 0 (+ var71 (- 1))))) (and (<= 0 (+ 12 (* (- 1) var73))) (<= 0 (+ var73 (- 1))))) (and (<= 0 (+ 12 (* (- 1) var67))) (<= 0 (+ var67 (- 1))))) (and (<= 0 (+ 12 (* (- 1) var61))) (<= 0 (+ var61 (- 1))))) (and (<= 0 (+ 12 (* (- 1) var54))) (<= 0 (+ var54 (- 1))))) (and (<= 0 (+ 12 (* (- 1) var46))) (<= 0 (+ var46 (- 1))))) (and (<= 0 (+ 12 (* (- 1) var52))) (<= 0 (+ var52 (- 1))))) (and (<= 0 (+ 12 (* (- 1) var59))) (<= 0 (+ var59 (- 1))))) (and (<= 0 (+ 12 (* (- 1) var65))) (<= 0 (+ var65 (- 1))))) (and (<= 0 (+ 12 (* (- 1) var70))) (<= 0 (+ var70 (- 1))))) (and (<= 0 (+ 12 (* (- 1) var72))) (<= 0 (+ var72 (- 1))))) (and (<= 0 (+ 12 (* (- 1) var74))) (<= 0 (+ var74 (- 1))))))) (inv_main793 var78 var77 var76 var74 var72 var70 var65 var59 var52 var46 var54 var61 var67 var73 var71 var0 var1 var2 var3 var4 var5 var6 var7 var8 var9 var10 var11 var12 var13 var14 var15 var16 var17 var18 var19 var20 var21 var22 var23 var24 var25 var26 var27 var28 var29 var30 var31 var32 var33 var34 var35 var36 var37 var38 var39 var40 var41 var42 var43 var44 var45 var47 var48 var49 var50 var51 var53 var55 var56 var57 var58 var60 var62 var63 var64 var66 var68 var69 1))))
(assert (forall ((var0 Int) (var1 Int) (var2 Int) (var3 Int) (var4 Int) (var5 Int) (var6 Int) (var7 Int) (var8 Int) (var9 Int) (var10 Int) (var11 Int) (var12 Int) (var13 Int) (var14 Int) (var15 Int) (var16 Int) (var17 Int) (var18 Int) (var19 Int) (var20 Int) (var21 Int) (var22 Int) (var23 Int) (var24 Int) (var25 Int) (var26 Int) (var27 Int) (var28 Int) (var29 Int) (var30 Int) (var31 Int) (var32 Int) (var33 Int) (var34 Int) (var35 Int) (var36 Int) (var37 Int) (var38 Int) (var39 Int) (var40 Int) (var41 Int) (var42 Int) (var43 Int) (var44 Int) (var45 Int) (var46 Int) (var47 Int) (var48 Int) (var49 Int) (var50 Int) (var51 Int) (var52 Int) (var53 Int) (var54 Int) (var55 Int) (var56 Int) (var57 Int) (var58 Int) (var59 Int) (var60 Int) (var61 Int) (var62 Int) (var63 Int) (var64 Int) (var65 Int) (var66 Int) (var67 Int) (var68 Int) (var69 Int) (var70 Int) (var71 Int) (var72 Int) (var73 Int) (var74 Int) (var75 Int) (var76 Int) (var77 Int) (var78 Int)) (not (inv_main793 var78 var77 var76 var75 var74 var73 var72 var71 var70 var69 var68 var67 var66 var65 var64 var63 var62 var61 var60 var59 var58 var57 var56 var55 var54 var53 var52 var51 var50 var49 var48 var47 var46 var45 var44 var43 var42 var41 var40 var39 var38 var37 var36 var35 var34 var33 var32 var31 var30 var29 var28 var27 var26 var25 var24 var23 var22 var21 var20 var19 var18 var17 var16 var15 var14 var13 var12 var11 var10 var9 var8 var7 var6 var5 var4 var3 var2 var1 var0))))
(check-sat)
